SolutionMethod        diagon

SystemName MoS2_electrode
SystemLabel MoS2_electrode


==================================================
==================================================
# SPECIES AND BASIS

# Number of species 
NumberOfSpecies 2
%block ChemicalSpeciesLabel
  1  42 Mo
  2  16 S
%endblock ChemicalSpeciesLabel

PAO.BasisSize    DZP
PAO.EnergyShift  0.005 Ry
XC.functional   GGA
XC.authors      PBE


==================================================
==================================================

# K-points

%block kgrid_Monkhorst_Pack
 20   0     0    0.0
 0    1     0    0.0
 0    0    100   0.0
%endblock kgrid_Monkhorst_Pack



==================================================
==================================================

# Structure
NumberOfAtoms 72
LatticeConstant 1.0 Ang
%block LatticeVectors
     19.1418929100000028    0.0000000000000000    0.0000000000000000
    -0.0000007358000000   14.8790035247999999    0.0000000000000000
     0.0000000000000000    0.0000000000000000   11.0515785217999998
%endblock LatticeVectors
AtomicCoordinatesFormat Ang
%block  AtomicCoordinatesAndAtomicSpecies
  1.5951576199999999  3.7197508810000000  0.9209667160000000 1
 -0.0000004910000000  3.7197508810000000  3.6838612639999999 1
  1.5951571290000000  5.2846352730000001  4.6048226269999999 2
 -0.0000002450000000  5.2846352730000001  1.8419279970000000 2
  1.5951571290000000  2.1548664899999999  4.6048226269999999 2
 -0.0000002450000000  2.1548664899999999  1.8419279970000000 2
  1.5951576199999999  3.7197508810000000  6.4467559768999996 1
 -0.0000004910000000  3.7197508810000000  9.2096505248999989 1
  1.5951571290000000  5.2846352730000001 10.1306118878999989 2
 -0.0000002450000000  5.2846352730000001  7.3677172578999999 2
  1.5951571290000000  2.1548664899999999 10.1306118878999989 2
 -0.0000002450000000  2.1548664899999999  7.3677172578999999 2
  4.7854731050000003  3.7197508810000000  0.9209667160000000 1
  3.1903149940000000  3.7197508810000000  3.6838612639999999 1
  4.7854726139999997  5.2846352730000001  4.6048226269999999 2
  3.1903152400000003  5.2846352730000001  1.8419279970000000 2
  4.7854726139999997  2.1548664899999999  4.6048226269999999 2
  3.1903152400000003  2.1548664899999999  1.8419279970000000 2
  4.7854731050000003  3.7197508810000000  6.4467559768999996 1
  3.1903149940000000  3.7197508810000000  9.2096505248999989 1
  4.7854726139999997  5.2846352730000001 10.1306118878999989 2
  3.1903152400000003  5.2846352730000001  7.3677172578999999 2 
  4.7854726139999997  2.1548664899999999 10.1306118878999989 2
  3.1903152400000003  2.1548664899999999  7.3677172578999999 2
  7.9757885900000005  3.7197508810000000  0.9209667160000000 1
  6.3806304790000006  3.7197508810000000  3.6838612639999999 1
  7.9757880990000007  5.2846352730000001  4.6048226269999999 2
  6.3806307250000005  5.2846352730000001  1.8419279970000000 2
  7.9757880990000007  2.1548664899999999  4.6048226269999999 2 
  6.3806307250000005  2.1548664899999999  1.8419279970000000 2
  7.9757885900000005  3.7197508810000000  6.4467559768999996 1
  6.3806304790000006  3.7197508810000000  9.2096505248999989 1
  7.9757880990000007  5.2846352730000001 10.1306118878999989 2
  6.3806307250000005  5.2846352730000001  7.3677172578999999 2
  7.9757880990000007  2.1548664899999999 10.1306118878999989 2
  6.3806307250000005  2.1548664899999999  7.3677172578999999 2
 11.1661040750000016  3.7197508810000000  0.9209667160000000 1
  9.5709459640000016  3.7197508810000000  3.6838612639999999 1
 11.1661035840000018  5.2846352730000001  4.6048226269999999 2
  9.5709462100000007  5.2846352730000001  1.8419279970000000 2
 11.1661035840000018  2.1548664899999999  4.6048226269999999 2 
  9.5709462100000007  2.1548664899999999  1.8419279970000000 2
 11.1661040750000016  3.7197508810000000  6.4467559768999996 1
  9.5709459640000016  3.7197508810000000  9.2096505248999989 1
 11.1661035840000018  5.2846352730000001 10.1306118878999989 2
  9.5709462100000007  5.2846352730000001  7.3677172578999999 2
 11.1661035840000018  2.1548664899999999 10.1306118878999989 2
  9.5709462100000007  2.1548664899999999  7.3677172578999999 2
 14.3564195600000009  3.7197508810000000  0.9209667160000000 1
 12.7612614490000009  3.7197508810000000  3.6838612639999999 1
 14.3564190690000011  5.2846352730000001  4.6048226269999999 2
 12.7612616950000000  5.2846352730000001  1.8419279970000000 2
 14.3564190690000011  2.1548664899999999  4.6048226269999999 2
 12.7612616950000000  2.1548664899999999  1.8419279970000000 2
 14.3564195600000009  3.7197508810000000  6.4467559768999996 1
 12.7612614490000009  3.7197508810000000  9.2096505248999989 1
 14.3564190690000011  5.2846352730000001 10.1306118878999989 2
 12.7612616950000000  5.2846352730000001  7.3677172578999999 2
 14.3564190690000011  2.1548664899999999 10.1306118878999989 2
 12.7612616950000000  2.1548664899999999  7.3677172578999999 2
 17.5467350449999984  3.7197508810000000  0.9209667160000000 1
 15.9515769340000002  3.7197508810000000  3.6838612639999999 1
 17.5467345540000004  5.2846352730000001  4.6048226269999999 2
 15.9515771799999992  5.2846352730000001  1.8419279970000000 2
 17.5467345540000004  2.1548664899999999  4.6048226269999999 2
 15.9515771799999992  2.1548664899999999  1.8419279970000000 2
 17.5467350449999984  3.7197508810000000  6.4467559768999996 1
 15.9515769340000002  3.7197508810000000  9.2096505248999989 1
 17.5467345540000004  5.2846352730000001 10.1306118878999989 2 
 15.9515771799999992  5.2846352730000001  7.3677172578999999 2
 17.5467345540000004  2.1548664899999999 10.1306118878999989 2 
 15.9515771799999992  2.1548664899999999  7.3677172578999999 2
%endblock  AtomicCoordinatesAndAtomicSpecies 

==================================================
==================================================
# SCF variables

DM.MixSCF1   T
MaxSCFIterations      300           # Maximum number of SCF iter
DM.MixingWeight       0.05          # New DM amount for next SCF cycle
DM.Tolerance          1.d-4         # Tolerance in maximum difference
DM.UseSaveDM          .true.          # to use continuation files
DM.NumberPulay        5

==================================================
==================================================
# MD variables

MD.FinalTimeStep 1
MD.TypeOfRun CG
MD.NumCGsteps     000
MD.UseSaveXV      .true.

==================================================
==================================================
# Output variables

WriteMullikenPop                 1
WriteBands                      .false.
SaveRho                         .false.
SaveDeltaRho                    .false.
SaveHS                          .true.
SaveElectrostaticPotential      .true. 
SaveTotalPotential              .true.
WriteCoorXmol                   .true.
WriteMDXmol                     .true.
WriteMDhistory                  .false.
WriteEigenvalues                .true.
XML.Write              	 .true.
==================================================
==================================================
#Other options

TS.HS.Save .true.
TS.DE.Save .true.
ParallelOverK .true.
User.Basis .false.
==================================================
==================================================








