SolutionMethod        Transiesta

SystemName MoS2_sca
SystemLabel MoS2_sca


==================================================
==================================================
# SPECIES AND BASIS

# Number of species 
NumberOfSpecies 2
%block ChemicalSpeciesLabel
  1  42 Mo
  2  16 S
%endblock ChemicalSpeciesLabel

PAO.BasisSize    DZP
PAO.EnergyShift  0.005 Ry
XC.functional   GGA
XC.authors      PBE



==================================================
==================================================

# K-points

%block kgrid_Monkhorst_Pack
20    0    0    0.0
 0    1    0    0.0
 0    0   100   0.0
%endblock kgrid_Monkhorst_Pack


==================================================
==================================================

# Structure
NumberOfAtoms 360
LatticeConstant 1.0 Ang
%block LatticeVectors
 19.1418929099999993    0.0000000000000000    0.0000000000000000
    -0.0000007360000000   14.8790035249999999    0.0000000000000000
     0.0000000000000000    0.0000000000000000   55.2578926099999990
%endblock LatticeVectors
AtomicCoordinatesFormat Ang
%block  AtomicCoordinatesAndAtomicSpecies
  1.5951576286869407  3.7197508812500000  0.9209667187630870 1
 -0.0000004902702866  3.7197508812500000  3.6838612608504588 1
  1.5951571301572292  5.2846352723833681  4.6048226306495410 2
 -0.0000002422661748  5.2846352723833681  1.8419280001495411 2
  1.5951571318382207  2.1548664901166323  4.6048226306495410 2
 -0.0000002405851827  2.1548664901166323  1.8419280001495411 2
  1.5951576286869407  3.7197508812500000  6.4467559797630862 1
 -0.0000004902702866  3.7197508812500000  9.2096505218504578 1
  1.5951571301572292  5.2846352723833681 10.1306118916495418 2
 -0.0000002422661748  5.2846352723833681  7.3677172611495418 2
  1.5951571318382207  2.1548664901166323 10.1306118916495418 2
 -0.0000002405851827  2.1548664901166323  7.3677172611495418 2
  4.7854731009256790  3.7197508812500000  0.9209667187630870 1 
  3.1903150011103443  3.7197508812500000  3.6838612608504588 1
  4.7854726215378598  5.2846352723833681  4.6048226306495410 2
  3.1903152491144557  5.2846352723833681  1.8419280001495411 2
  4.7854726232188520  2.1548664901166323  4.6048226306495410 2
  3.1903152316535555  2.1548664901166323  1.8419280001495411 2
  4.7854731009256790  3.7197508812500000  6.4467559797630862 1
  3.1903150011103443  3.7197508812500000  9.2096505218504578 1
  4.7854726215378598  5.2846352723833681 10.1306118916495418 2
  3.1903152491144557  5.2846352723833681  7.3677172611495418 2
  4.7854726232188520  2.1548664901166323 10.1306118916495418 2
  3.1903152316535555  2.1548664901166323  7.3677172611495418 2
  7.9757885923063094  3.7197508812500000  0.9209667187630870 1
  6.3806304733490826  3.7197508812500000  3.6838612608504588 1
  7.9757880937765968  5.2846352723833681  4.6048226306495410 2
  6.3806307213531941  5.2846352723833681  1.8419280001495411 2
  7.9757880954575890  2.1548664901166323  4.6048226306495410 2
  6.3806307230341854  2.1548664901166323  1.8419280001495411 2
  7.9757885923063094  3.7197508812500000  6.4467559797630862 1
  6.3806304733490826  3.7197508812500000  9.2096505218504578 1
  7.9757880937765968  5.2846352723833681 10.1306118916495418 2
  6.3806307213531941  5.2846352723833681  7.3677172611495418 2
  7.9757880954575890  2.1548664901166323 10.1306118916495418 2
  6.3806307230341854  2.1548664901166323  7.3677172611495418 2
 11.1661040836869407  3.7197508812500000  0.9209667187630870 1
  9.5709459647297148  3.7197508812500000  3.6838612608504588 1
 11.1661035851572272  5.2846352723833681  4.6048226306495410 2
  9.5709462127338227  5.2846352723833681  1.8419280001495411 2
 11.1661035868382204  2.1548664901166323  4.6048226306495410 2
  9.5709462144148176  2.1548664901166323  1.8419280001495411 2
 11.1661040836869407  3.7197508812500000  6.4467559797630862 1
  9.5709459647297148  3.7197508812500000  9.2096505218504578 1
 11.1661035851572272  5.2846352723833681 10.1306118916495418 2
  9.5709462127338227  5.2846352723833681  7.3677172611495418 2
 11.1661035868382204  2.1548664901166323 10.1306118916495418 2
  9.5709462144148176  2.1548664901166323  7.3677172611495418 2
 14.3564195559256795  3.7197508812500000  0.9209667187630870 1
 12.7612614561103452  3.7197508812500000  3.6838612608504588 1
 14.3564190765378576  5.2846352723833681  4.6048226306495410 2
 12.7612617041144549  5.2846352723833681  1.8419280001495411 2
 14.3564190782188508  2.1548664901166323  4.6048226306495410 2
 12.7612616866535546  2.1548664901166323  1.8419280001495411 2
 14.3564195559256795  3.7197508812500000  6.4467559797630862 1
 12.7612614561103452  3.7197508812500000  9.2096505218504578 1 
 14.3564190765378576  5.2846352723833681 10.1306118916495418 2
 12.7612617041144549  5.2846352723833681  7.3677172611495418 2
 14.3564190782188508  2.1548664901166323 10.1306118916495418 2
 12.7612616866535546  2.1548664901166323  7.3677172611495418 2
 17.5467350473063100  3.7197508812500000  0.9209667187630870 1
 15.9515769283490823  3.7197508812500000  3.6838612608504588 1
 17.5467345487765947  5.2846352723833681  4.6048226306495410 2
 15.9515771763531919  5.2846352723833681  1.8419280001495411 2
 17.5467345504575860  2.1548664901166323  4.6048226306495410 2
 15.9515771780341868  2.1548664901166323  1.8419280001495411 2
 17.5467350473063100  3.7197508812500000  6.4467559797630862 1
 15.9515769283490823  3.7197508812500000  9.2096505218504578 1
 17.5467345487765947  5.2846352723833681 10.1306118916495418 2
 15.9515771763531919  5.2846352723833681  7.3677172611495418 2
 17.5467345504575860  2.1548664901166323 10.1306118916495418 2
 15.9515771780341868  2.1548664901166323  7.3677172611495418 2
  1.5951576286869407  3.7197508812500000 11.9725452407630861 1
 -0.0000004902702866  3.7197508812500000 14.7354397828504595 1
  1.5951571301572292  5.2846352723833681 15.6564011526495399 2
 -0.0000002422661748  5.2846352723833681 12.8935065221495400 2
  1.5951571318382207  2.1548664901166323 15.6564011526495399 2
 -0.0000002405851827  2.1548664901166323 12.8935065221495400 2
  1.5951576286869407  3.7197508812500000 17.4983345017630860 1
 -0.0000004902702866  3.7197508812500000 20.2612290438504559 1
  1.5951571301572292  5.2846352723833681 21.1821904136495434 2
 -0.0000002422661748  5.2846352723833681 18.4192957831495434 2 
  1.5951571318382207  2.1548664901166323 21.1821904136495434 2
 -0.0000002405851827  2.1548664901166323 18.4192957831495434 2
  4.7854731009256790  3.7197508812500000 11.9725452407630861 1
  3.1903150011103443  3.7197508812500000 14.7354397828504595 1
  4.7854726215378598  5.2846352723833681 15.6564011526495399 2
  3.1903152491144557  5.2846352723833681 12.8935065221495400 2
  4.7854726232188520  2.1548664901166323 15.6564011526495399 2
  3.1903152316535555  2.1548664901166323 12.8935065221495400 2
  4.7854731009256790  3.7197508812500000 17.4983345017630860 1
  3.1903150011103443  3.7197508812500000 20.2612290438504559 1
  4.7854726215378598  5.2846352723833681 21.1821904136495434 2
  3.1903152491144557  5.2846352723833681 18.4192957831495434 2
  4.7854726232188520  2.1548664901166323 21.1821904136495434 2
  3.1903152316535555  2.1548664901166323 18.4192957831495434 2
  7.9757885923063094  3.7197508812500000 11.9725452407630861 1
  6.3806304733490826  3.7197508812500000 14.7354397828504595 1
  7.9757880937765968  5.2846352723833681 15.6564011526495399 2
  6.3806307213531941  5.2846352723833681 12.8935065221495400 2
  7.9757880954575890  2.1548664901166323 15.6564011526495399 2
  6.3806307230341854  2.1548664901166323 12.8935065221495400 2
  7.9757885923063094  3.7197508812500000 17.4983345017630860 1
  6.3806304733490826  3.7197508812500000 20.2612290438504559 1
  7.9757880937765968  5.2846352723833681 21.1821904136495434 2
  6.3806307213531941  5.2846352723833681 18.4192957831495434 2
  7.9757880954575890  2.1548664901166323 21.1821904136495434 2
  6.3806307230341854  2.1548664901166323 18.4192957831495434 2
 11.1661040836869407  3.7197508812500000 11.9725452407630861 1
  9.5709459647297148  3.7197508812500000 14.7354397828504595 1
 11.1661035851572272  5.2846352723833681 15.6564011526495399 2
  9.5709462127338227  5.2846352723833681 12.8935065221495400 2
 11.1661035868382204  2.1548664901166323 15.6564011526495399 2
  9.5709462144148176  2.1548664901166323 12.8935065221495400 2
 11.1661040836869407  3.7197508812500000 17.4983345017630860 1
  9.5709459647297148  3.7197508812500000 20.2612290438504559 1
 11.1661035851572272  5.2846352723833681 21.1821904136495434 2
  9.5709462127338227  5.2846352723833681 18.4192957831495434 2
 11.1661035868382204  2.1548664901166323 21.1821904136495434 2
  9.5709462144148176  2.1548664901166323 18.4192957831495434 2
 14.3564195559256795  3.7197508812500000 11.9725452407630861 1
 12.7612614561103452  3.7197508812500000 14.7354397828504595 1
 14.3564190765378576  5.2846352723833681 15.6564011526495399 2
 12.7612617041144549  5.2846352723833681 12.8935065221495400 2
 14.3564190782188508  2.1548664901166323 15.6564011526495399 2
 12.7612616866535546  2.1548664901166323 12.8935065221495400 2
 14.3564195559256795  3.7197508812500000 17.4983345017630860 1
 12.7612614561103452  3.7197508812500000 20.2612290438504559 1
 14.3564190765378576  5.2846352723833681 21.1821904136495434 2
 12.7612617041144549  5.2846352723833681 18.4192957831495434 2
 14.3564190782188508  2.1548664901166323 21.1821904136495434 2
 12.7612616866535546  2.1548664901166323 18.4192957831495434 2
 17.5467350473063100  3.7197508812500000 11.9725452407630861 1
 15.9515769283490823  3.7197508812500000 14.7354397828504595 1
 17.5467345487765947  5.2846352723833681 15.6564011526495399 2
 15.9515771763531919  5.2846352723833681 12.8935065221495400 2
 17.5467345504575860  2.1548664901166323 15.6564011526495399 2
 15.9515771780341868  2.1548664901166323 12.8935065221495400 2
 17.5467350473063100  3.7197508812500000 17.4983345017630860 1
 15.9515769283490823  3.7197508812500000 20.2612290438504559 1
 17.5467345487765947  5.2846352723833681 21.1821904136495434 2
 15.9515771763531919  5.2846352723833681 18.4192957831495434 2 
 17.5467345504575860  2.1548664901166323 21.1821904136495434 2
 15.9515771780341868  2.1548664901166323 18.4192957831495434 2
  1.5951576286869407  3.7197508812500000 23.0241237627630859 1
 -0.0000004902702866  3.7197508812500000 25.7870183048504593 1
  1.5951571301572292  5.2846352723833681 26.7079796746495397 2
 -0.0000002422661748  5.2846352723833681 23.9450850441495398 2
  1.5951571318382207  2.1548664901166323 26.7079796746495397 2
 -0.0000002405851827  2.1548664901166323 23.9450850441495398 2
  1.5951576286869407  3.7197508812500000 28.5499130237630858 1
 -0.0000004902702866  3.7197508812500000 31.3128075658504557 1
  1.5951571301572292  5.2846352723833681 32.2337689356495432 2
 -0.0000002422661748  5.2846352723833681 29.4708743051495432 2
  1.5951571318382207  2.1548664901166323 32.2337689356495432 2
 -0.0000002405851827  2.1548664901166323 29.4708743051495432 2
  4.7854731009256790  3.7197508812500000 23.0241237627630859 1
  3.1903150011103443  3.7197508812500000 25.7870183048504593 1
  4.7854726215378598  5.2846352723833681 26.7079796746495397 2
  3.1903152491144557  5.2846352723833681 23.9450850441495398 2
  4.7854726232188520  2.1548664901166323 26.7079796746495397 2
  3.1903152316535555  2.1548664901166323 23.9450850441495398 2
  4.7854731009256790  3.7197508812500000 28.5499130237630858 1
  3.1903150011103443  3.7197508812500000 31.3128075658504557 1
  4.7854726215378598  5.2846352723833681 32.2337689356495432 2
  3.1903152491144557  5.2846352723833681 29.4708743051495432 2
  4.7854726232188520  2.1548664901166323 32.2337689356495432 2
  3.1903152316535555  2.1548664901166323 29.4708743051495432 2
  7.9757885923063094  3.7197508812500000 23.0241237627630859 1
  6.3806304733490826  3.7197508812500000 25.7870183048504593 1
  7.9757880937765968  5.2846352723833681 26.7079796746495397 2
  6.3806307213531941  5.2846352723833681 23.9450850441495398 2
  7.9757880954575890  2.1548664901166323 26.7079796746495397 2
  6.3806307230341854  2.1548664901166323 23.9450850441495398 2
  7.9757885923063094  3.7197508812500000 28.5499130237630858 1
  6.3806304733490826  3.7197508812500000 31.3128075658504557 1
  7.9757880937765968  5.2846352723833681 32.2337689356495432 2
  6.3806307213531941  5.2846352723833681 29.4708743051495432 2
  7.9757880954575890  2.1548664901166323 32.2337689356495432 2
  6.3806307230341854  2.1548664901166323 29.4708743051495432 2
 11.1661040836869407  3.7197508812500000 23.0241237627630859 1
  9.5709459647297148  3.7197508812500000 25.7870183048504593 1
 11.1661035851572272  5.2846352723833681 26.7079796746495397 2
  9.5709462127338227  5.2846352723833681 23.9450850441495398 2
 11.1661035868382204  2.1548664901166323 26.7079796746495397 2
  9.5709462144148176  2.1548664901166323 23.9450850441495398 2
 11.1661040836869407  3.7197508812500000 28.5499130237630858 1
  9.5709459647297148  3.7197508812500000 31.3128075658504557 1
 11.1661035851572272  5.2846352723833681 32.2337689356495432 2
  9.5709462127338227  5.2846352723833681 29.4708743051495432 2
 11.1661035868382204  2.1548664901166323 32.2337689356495432 2
  9.5709462144148176  2.1548664901166323 29.4708743051495432 2
 14.3564195559256795  3.7197508812500000 23.0241237627630859 1
 12.7612614561103452  3.7197508812500000 25.7870183048504593 1
 14.3564190765378576  5.2846352723833681 26.7079796746495397 2
 12.7612617041144549  5.2846352723833681 23.9450850441495398 2
 14.3564190782188508  2.1548664901166323 26.7079796746495397 2
 12.7612616866535546  2.1548664901166323 23.9450850441495398 2
 14.3564195559256795  3.7197508812500000 28.5499130237630858 1
 12.7612614561103452  3.7197508812500000 31.3128075658504557 1
 14.3564190765378576  5.2846352723833681 32.2337689356495432 2
 12.7612617041144549  5.2846352723833681 29.4708743051495432 2
 14.3564190782188508  2.1548664901166323 32.2337689356495432 2
 12.7612616866535546  2.1548664901166323 29.4708743051495432 2
 17.5467350473063100  3.7197508812500000 23.0241237627630859 1
 15.9515769283490823  3.7197508812500000 25.7870183048504593 1 
 17.5467345487765947  5.2846352723833681 26.7079796746495397 2 
 15.9515771763531919  5.2846352723833681 23.9450850441495398 2
 17.5467345504575860  2.1548664901166323 26.7079796746495397 2
 15.9515771780341868  2.1548664901166323 23.9450850441495398 2
 17.5467350473063100  3.7197508812500000 28.5499130237630858 1
 15.9515769283490823  3.7197508812500000 31.3128075658504557 1
 17.5467345487765947  5.2846352723833681 32.2337689356495432 2 
 15.9515771763531919  5.2846352723833681 29.4708743051495432 2
 17.5467345504575860  2.1548664901166323 32.2337689356495432 2 
 15.9515771780341868  2.1548664901166323 29.4708743051495432 2
  1.5951576286869407  3.7197508812500000 34.0757022847630893 1 
 -0.0000004902702866  3.7197508812500000 36.8385968268504556 1
  1.5951571301572292  5.2846352723833681 37.7595581966495430 2
 -0.0000002422661748  5.2846352723833681 34.9966635661495431 2
  1.5951571318382207  2.1548664901166323 37.7595581966495430 2
 -0.0000002405851827  2.1548664901166323 34.9966635661495431 2
  1.5951576286869407  3.7197508812500000 39.6014915457630821 1
 -0.0000004902702866  3.7197508812500000 42.3643860878504555 1
  1.5951571301572292  5.2846352723833681 43.2853474576495429 2
 -0.0000002422661748  5.2846352723833681 40.5224528271495430 2
  1.5951571318382207  2.1548664901166323 43.2853474576495429 2 
 -0.0000002405851827  2.1548664901166323 40.5224528271495430 2
  4.7854731009256790  3.7197508812500000 34.0757022847630893 1
  3.1903150011103443  3.7197508812500000 36.8385968268504556 1 
  4.7854726215378598  5.2846352723833681 37.7595581966495430 2 
  3.1903152491144557  5.2846352723833681 34.9966635661495431 2
  4.7854726232188520  2.1548664901166323 37.7595581966495430 2
  3.1903152316535555  2.1548664901166323 34.9966635661495431 2
  4.7854731009256790  3.7197508812500000 39.6014915457630821 1
  3.1903150011103443  3.7197508812500000 42.3643860878504555 1
  4.7854726215378598  5.2846352723833681 43.2853474576495429 2
  3.1903152491144557  5.2846352723833681 40.5224528271495430 2
  4.7854726232188520  2.1548664901166323 43.2853474576495429 2
  3.1903152316535555  2.1548664901166323 40.5224528271495430 2
  7.9757885923063094  3.7197508812500000 34.0757022847630893 1 
  6.3806304733490826  3.7197508812500000 36.8385968268504556 1
  7.9757880937765968  5.2846352723833681 37.7595581966495430 2
  6.3806307213531941  5.2846352723833681 34.9966635661495431 2
  7.9757880954575890  2.1548664901166323 37.7595581966495430 2
  6.3806307230341854  2.1548664901166323 34.9966635661495431 2
  7.9757885923063094  3.7197508812500000 39.6014915457630821 1 
  6.3806304733490826  3.7197508812500000 42.3643860878504555 1
  7.9757880937765968  5.2846352723833681 43.2853474576495429 2
  6.3806307213531941  5.2846352723833681 40.5224528271495430 2
  7.9757880954575890  2.1548664901166323 43.2853474576495429 2
  6.3806307230341854  2.1548664901166323 40.5224528271495430 2
 11.1661040836869407  3.7197508812500000 34.0757022847630893 1
  9.5709459647297148  3.7197508812500000 36.8385968268504556 1
 11.1661035851572272  5.2846352723833681 37.7595581966495430 2
  9.5709462127338227  5.2846352723833681 34.9966635661495431 2
 11.1661035868382204  2.1548664901166323 37.7595581966495430 2
  9.5709462144148176  2.1548664901166323 34.9966635661495431 2
 11.1661040836869407  3.7197508812500000 39.6014915457630821 1 
  9.5709459647297148  3.7197508812500000 42.3643860878504555 1
 11.1661035851572272  5.2846352723833681 43.2853474576495429 2
  9.5709462127338227  5.2846352723833681 40.5224528271495430 2
 11.1661035868382204  2.1548664901166323 43.2853474576495429 2
  9.5709462144148176  2.1548664901166323 40.5224528271495430 2
 14.3564195559256795  3.7197508812500000 34.0757022847630893 1
 12.7612614561103452  3.7197508812500000 36.8385968268504556 1
 14.3564190765378576  5.2846352723833681 37.7595581966495430 2
 12.7612617041144549  5.2846352723833681 34.9966635661495431 2
 14.3564190782188508  2.1548664901166323 37.7595581966495430 2 
 12.7612616866535546  2.1548664901166323 34.9966635661495431 2
 14.3564195559256795  3.7197508812500000 39.6014915457630821 1
 12.7612614561103452  3.7197508812500000 42.3643860878504555 1
 14.3564190765378576  5.2846352723833681 43.2853474576495429 2
 12.7612617041144549  5.2846352723833681 40.5224528271495430 2
 14.3564190782188508  2.1548664901166323 43.2853474576495429 2
 12.7612616866535546  2.1548664901166323 40.5224528271495430 2
 17.5467350473063100  3.7197508812500000 34.0757022847630893 1
 15.9515769283490823  3.7197508812500000 36.8385968268504556 1
 17.5467345487765947  5.2846352723833681 37.7595581966495430 2 
 15.9515771763531919  5.2846352723833681 34.9966635661495431 2
 17.5467345504575860  2.1548664901166323 37.7595581966495430 2
 15.9515771780341868  2.1548664901166323 34.9966635661495431 2
 17.5467350473063100  3.7197508812500000 39.6014915457630821 1
 15.9515769283490823  3.7197508812500000 42.3643860878504555 1
 17.5467345487765947  5.2846352723833681 43.2853474576495429 2
 15.9515771763531919  5.2846352723833681 40.5224528271495430 2
 17.5467345504575860  2.1548664901166323 43.2853474576495429 2
 15.9515771780341868  2.1548664901166323 40.5224528271495430 2
  1.5951576286869407  3.7197508812500000 45.1272808067630891 1
 -0.0000004902702866  3.7197508812500000 47.8901753488504554 1
  1.5951571301572292  5.2846352723833681 48.8111367186495428 2
 -0.0000002422661748  5.2846352723833681 46.0482420881495429 2
  1.5951571318382207  2.1548664901166323 48.8111367186495428 2
 -0.0000002405851827  2.1548664901166323 46.0482420881495429 2
  1.5951576286869407  3.7197508812500000 50.6530700677630819 1
 -0.0000004902702866  3.7197508812500000 53.4159646098504552 1
  1.5951571301572292  5.2846352723833681 54.3369259796495427 2
 -0.0000002422661748  5.2846352723833681 51.5740313491495428 2
  1.5951571318382207  2.1548664901166323 54.3369259796495427 2
 -0.0000002405851827  2.1548664901166323 51.5740313491495428 2
  4.7854731009256790  3.7197508812500000 45.1272808067630891 1
  3.1903150011103443  3.7197508812500000 47.8901753488504554 1
  4.7854726215378598  5.2846352723833681 48.8111367186495428 2
  3.1903152491144557  5.2846352723833681 46.0482420881495429 2
  4.7854726232188520  2.1548664901166323 48.8111367186495428 2
  3.1903152316535555  2.1548664901166323 46.0482420881495429 2
  4.7854731009256790  3.7197508812500000 50.6530700677630819 1
  3.1903150011103443  3.7197508812500000 53.4159646098504552 1
  4.7854726215378598  5.2846352723833681 54.3369259796495427 2
  3.1903152491144557  5.2846352723833681 51.5740313491495428 2
  4.7854726232188520  2.1548664901166323 54.3369259796495427 2
  3.1903152316535555  2.1548664901166323 51.5740313491495428 2
  7.9757885923063094  3.7197508812500000 45.1272808067630891 1
  6.3806304733490826  3.7197508812500000 47.8901753488504554 1
  7.9757880937765968  5.2846352723833681 48.8111367186495428 2
  6.3806307213531941  5.2846352723833681 46.0482420881495429 2
  7.9757880954575890  2.1548664901166323 48.8111367186495428 2
  6.3806307230341854  2.1548664901166323 46.0482420881495429 2
  7.9757885923063094  3.7197508812500000 50.6530700677630819 1
  6.3806304733490826  3.7197508812500000 53.4159646098504552 1
  7.9757880937765968  5.2846352723833681 54.3369259796495427 2
  6.3806307213531941  5.2846352723833681 51.5740313491495428 2
  7.9757880954575890  2.1548664901166323 54.3369259796495427 2
  6.3806307230341854  2.1548664901166323 51.5740313491495428 2
 11.1661040836869407  3.7197508812500000 45.1272808067630891 1
  9.5709459647297148  3.7197508812500000 47.8901753488504554 1
 11.1661035851572272  5.2846352723833681 48.8111367186495428 2
  9.5709462127338227  5.2846352723833681 46.0482420881495429 2
 11.1661035868382204  2.1548664901166323 48.8111367186495428 2
  9.5709462144148176  2.1548664901166323 46.0482420881495429 2
 11.1661040836869407  3.7197508812500000 50.6530700677630819 1
  9.5709459647297148  3.7197508812500000 53.4159646098504552 1
 11.1661035851572272  5.2846352723833681 54.3369259796495427 2
  9.5709462127338227  5.2846352723833681 51.5740313491495428 2
 11.1661035868382204  2.1548664901166323 54.3369259796495427 2
  9.5709462144148176  2.1548664901166323 51.5740313491495428 2
 14.3564195559256795  3.7197508812500000 45.1272808067630891 1 
 12.7612614561103452  3.7197508812500000 47.8901753488504554 1
 14.3564190765378576  5.2846352723833681 48.8111367186495428 2
 12.7612617041144549  5.2846352723833681 46.0482420881495429 2 
 14.3564190782188508  2.1548664901166323 48.8111367186495428 2
 12.7612616866535546  2.1548664901166323 46.0482420881495429 2
 14.3564195559256795  3.7197508812500000 50.6530700677630819 1
 12.7612614561103452  3.7197508812500000 53.4159646098504552 1
 14.3564190765378576  5.2846352723833681 54.3369259796495427 2
 12.7612617041144549  5.2846352723833681 51.5740313491495428 2
 14.3564190782188508  2.1548664901166323 54.3369259796495427 2 
 12.7612616866535546  2.1548664901166323 51.5740313491495428 2
 17.5467350473063100  3.7197508812500000 45.1272808067630891 1 
 15.9515769283490823  3.7197508812500000 47.8901753488504554 1
 17.5467345487765947  5.2846352723833681 48.8111367186495428 2
 15.9515771763531919  5.2846352723833681 46.0482420881495429 2
 17.5467345504575860  2.1548664901166323 48.8111367186495428 2
 15.9515771780341868  2.1548664901166323 46.0482420881495429 2
 17.5467350473063100  3.7197508812500000 50.6530700677630819 1
 15.9515769283490823  3.7197508812500000 53.4159646098504552 1
 17.5467345487765947  5.2846352723833681 54.3369259796495427 2
 15.9515771763531919  5.2846352723833681 51.5740313491495428 2
 17.5467345504575860  2.1548664901166323 54.3369259796495427 2
 15.9515771780341868  2.1548664901166323 51.5740313491495428 2
%endblock  AtomicCoordinatesAndAtomicSpecies 

==================================================
==================================================
# SCF variables

DM.MixSCF1   T
MaxSCFIterations      300           # Maximum number of SCF iter
DM.MixingWeight       0.05          # New DM amount for next SCF cycle
DM.Tolerance          1.d-4         # Tolerance in maximum difference
DM.UseSaveDM          true          # to use continuation files
DM.NumberPulay        5

==================================================
==================================================
# MD variables

MD.FinalTimeStep 1
MD.TypeOfRun CG
MD.NumCGsteps     000
MD.UseSaveXV      .true.

==================================================
==================================================
# Output variables

WriteMullikenPop                1
WriteBands                      .false.
SaveRho                         .false.
SaveDeltaRho                    .false.
SaveHS                          .true.
SaveElectrostaticPotential      .true. 
SaveTotalPotential              .true.
WriteCoorXmol                   .true.
WriteMDXmol                     .true.
WriteMDhistory                  .false.
WriteEigenvalues                .true.
XML.Write              	        .true.

==================================================
==================================================
#Other options

TS.HS.Save          .true.
TS.DE.Save          .true.
ParallelOverK       .true.
User.Basis          .false.
Diag.ParallelOverK  .true. 

==================================================
==================================================
#####################TRANSIESTA###################

# Bias voltage
TS.Voltage 0.0 eV
%block TS.ChemPots
  Left
  Right
%endblock TS.ChemPots

%block TS.ChemPot.Left
  mu V/2
  contour.eq
    begin
      c-Left
      t-Left
    end
%endblock TS.ChemPot.Left
%block TS.ChemPot.Right
  mu -V/2
  contour.eq
    begin
      c-Right
      t-Right
    end
%endblock TS.ChemPot.Right

TS.Elecs.Bulk true
TS.Elecs.DM.Update none
TS.Elecs.GF.ReUse false
%block TS.Elecs
  Left
  Right
%endblock TS.Elecs

%block TS.Elec.Left
  TSHS ./home/guruprasad/Trans/scattering/MoS2_electrode.TSHS
  chem-pot Left
  semi-inf-dir -a3
  elec-pos begin 1
  NumUsedAtomsLeft 72
%endblock TS.Elec.Left

%block TS.Elec.Right
  TSHS ./home/guruprasad/Trans/scattering/MoS2_electrode.TSHS
  chem-pot Right
  semi-inf-dir +a3
  elec-pos end -1
  NumUsedAtomsRight 72
%endblock TS.Elec.Right

TS.Contours.Eq.Pole 2.5 eV
%block TS.Contour.c-Left
  part circle
   from   -40.00000 eV + V/2 to -10. kT + V/2
    points 30
     method g-legendre
%endblock TS.Contour.c-Left
%block TS.Contour.t-Left
  part tail
   from prev to inf
    points 10
     method g-fermi
%endblock TS.Contour.t-Left
%block TS.Contour.c-Right
  part circle
   from   -40.00000 eV - V/2 to -10. kT - V/2
    points 30
     method g-legendre
%endblock TS.Contour.c-Right
%block TS.Contour.t-Right
  part tail
   from prev to inf
    points 10
     method g-fermi
%endblock TS.Contour.t-Right

TS.Contours.nEq.Eta 0.0001 eV
%block TS.Contours.nEq
  neq
%endblock TS.Contours.nEq
%block TS.Contour.nEq.neq
  part line
   from -|V|/2 - 5 kT to |V|/2 + 5 kT
    delta 0.01 eV
     method mid-rule
%endblock TS.Contour.nEq.neq

TBT.DOS.A.All T
TS.SolutionMethod btd
TS.BTD.Pivot atom+Left
==================================================
==================================================





